c 
c MolecularSimulation 0.9.3
c Simulation written: Jan 13 2012 -- 15:17:57
c Test: Distribution
c Input: ./data/testCNF/SWEEP_R3_K3_N20_M44_S002.cnf
c 
s SATISFIABLE
v 1 2 3 -4 5 -6 7 -8 -9 -10 -11 -12 -13 14 15 16 -17 -18 19 0
c algorithmTime:  888
c solutionMemory: 28843
c mixCount:       129
c extractCount:   0
c appendCount:    16731587
c splitCount:     129
c spliceCount:    7863127
c purifyCount:    43
c 
